examples/inputs/input10.dzn
n = 40;
l = 300;
s = 300;
r = 300;
f = 150;
forbidden = [| 26, 23
	| 7, 25
	| 37, 29
	| 19, 6
	| 18, 8
	| 15, 31
	| 19, 16
	| 18, 23
	| 30, 18
	| 17, 32
	| 10, 24
	| 39, 16
	| 7, 12
	| 28, 33
	| 39, 5
	| 10, 34
	| 26, 26
	| 3, 5
	| 8, 28
	| 21, 14
	| 14, 14
	| 16, 38
	| 35, 26
	| 4, 21
	| 12, 4
	| 30, 1
	| 30, 13
	| 14, 2
	| 7, 10
	| 22, 34
	| 38, 30
	| 7, 7
	| 29, 40
	| 12, 27
	| 1, 30
	| 38, 9
	| 27, 1
	| 36, 1
	| 32, 4
	| 13, 39
	| 33, 32
	| 33, 27
	| 14, 19
	| 13, 10
	| 30, 31
	| 28, 34
	| 40, 29
	| 39, 28
	| 3, 39
	| 30, 19
	| 29, 21
	| 31, 34
	| 37, 4
	| 21, 33
	| 39, 35
	| 19, 3
	| 27, 11
	| 39, 24
	| 10, 17
	| 2, 10
	| 4, 13
	| 27, 30
	| 6, 1
	| 16, 19
	| 7, 28
	| 3, 10
	| 5, 33
	| 37, 32
	| 2, 3
	| 13, 12
	| 34, 33
	| 20, 9
	| 27, 4
	| 33, 8
	| 14, 8
	| 6, 30
	| 37, 18
	| 3, 1
	| 24, 35
	| 35, 6
	| 14, 34
	| 14, 38
	| 13, 40
	| 3, 15
	| 9, 33
	| 29, 17
	| 20, 8
	| 13, 32
	| 6, 27
	| 14, 3
	| 23, 32
	| 37, 39
	| 24, 27
	| 38, 19
	| 19, 19
	| 11, 3
	| 36, 3
	| 35, 7
	| 18, 32
	| 13, 13
	| 5, 36
	| 12, 20
	| 4, 24
	| 2, 11
	| 30, 40
	| 33, 26
	| 32, 1
	| 37, 8
	| 25, 13
	| 22, 7
	| 31, 10
	| 26, 37
	| 23, 4
	| 16, 36
	| 32, 20
	| 35, 25
	| 17, 38
	| 18, 40
	| 23, 8
	| 39, 22
	| 27, 23
	| 19, 2
	| 12, 8
	| 17, 34
	| 3, 38
	| 36, 35
	| 33, 1
	| 4, 34
	| 4, 40
	| 14, 28
	| 19, 8
	| 25, 11
	| 23, 37
	| 4, 12
	| 2, 30
	| 36, 40
	| 5, 37
	| 19, 35
	| 13, 38
	| 15, 24
	| 8, 29
	| 27, 35
	| 24, 37
	| 13, 22
	| 6, 17
	| 2, 33
	| 14, 7
	| 20, 30
	| 25, 4
	| 14, 11
	|];