examples/inputs/input10.lp
#const n = 40.
#const l = 300.
#const s = 300.
#const r = 300.
#const f = 150.
val(26, 23, xxx).
val(7, 25, xxx).
val(37, 29, xxx).
val(19, 6, xxx).
val(18, 8, xxx).
val(15, 31, xxx).
val(19, 16, xxx).
val(18, 23, xxx).
val(30, 18, xxx).
val(17, 32, xxx).
val(10, 24, xxx).
val(39, 16, xxx).
val(7, 12, xxx).
val(28, 33, xxx).
val(39, 5, xxx).
val(10, 34, xxx).
val(26, 26, xxx).
val(3, 5, xxx).
val(8, 28, xxx).
val(21, 14, xxx).
val(14, 14, xxx).
val(16, 38, xxx).
val(35, 26, xxx).
val(4, 21, xxx).
val(12, 4, xxx).
val(30, 1, xxx).
val(30, 13, xxx).
val(14, 2, xxx).
val(7, 10, xxx).
val(22, 34, xxx).
val(38, 30, xxx).
val(7, 7, xxx).
val(29, 40, xxx).
val(12, 27, xxx).
val(1, 30, xxx).
val(38, 9, xxx).
val(27, 1, xxx).
val(36, 1, xxx).
val(32, 4, xxx).
val(13, 39, xxx).
val(33, 32, xxx).
val(33, 27, xxx).
val(14, 19, xxx).
val(13, 10, xxx).
val(30, 31, xxx).
val(28, 34, xxx).
val(40, 29, xxx).
val(39, 28, xxx).
val(3, 39, xxx).
val(30, 19, xxx).
val(29, 21, xxx).
val(31, 34, xxx).
val(37, 4, xxx).
val(21, 33, xxx).
val(39, 35, xxx).
val(19, 3, xxx).
val(27, 11, xxx).
val(39, 24, xxx).
val(10, 17, xxx).
val(2, 10, xxx).
val(4, 13, xxx).
val(27, 30, xxx).
val(6, 1, xxx).
val(16, 19, xxx).
val(7, 28, xxx).
val(3, 10, xxx).
val(5, 33, xxx).
val(37, 32, xxx).
val(2, 3, xxx).
val(13, 12, xxx).
val(34, 33, xxx).
val(20, 9, xxx).
val(27, 4, xxx).
val(33, 8, xxx).
val(14, 8, xxx).
val(6, 30, xxx).
val(37, 18, xxx).
val(3, 1, xxx).
val(24, 35, xxx).
val(35, 6, xxx).
val(14, 34, xxx).
val(14, 38, xxx).
val(13, 40, xxx).
val(3, 15, xxx).
val(9, 33, xxx).
val(29, 17, xxx).
val(20, 8, xxx).
val(13, 32, xxx).
val(6, 27, xxx).
val(14, 3, xxx).
val(23, 32, xxx).
val(37, 39, xxx).
val(24, 27, xxx).
val(38, 19, xxx).
val(19, 19, xxx).
val(11, 3, xxx).
val(36, 3, xxx).
val(35, 7, xxx).
val(18, 32, xxx).
val(13, 13, xxx).
val(5, 36, xxx).
val(12, 20, xxx).
val(4, 24, xxx).
val(2, 11, xxx).
val(30, 40, xxx).
val(33, 26, xxx).
val(32, 1, xxx).
val(37, 8, xxx).
val(25, 13, xxx).
val(22, 7, xxx).
val(31, 10, xxx).
val(26, 37, xxx).
val(23, 4, xxx).
val(16, 36, xxx).
val(32, 20, xxx).
val(35, 25, xxx).
val(17, 38, xxx).
val(18, 40, xxx).
val(23, 8, xxx).
val(39, 22, xxx).
val(27, 23, xxx).
val(19, 2, xxx).
val(12, 8, xxx).
val(17, 34, xxx).
val(3, 38, xxx).
val(36, 35, xxx).
val(33, 1, xxx).
val(4, 34, xxx).
val(4, 40, xxx).
val(14, 28, xxx).
val(19, 8, xxx).
val(25, 11, xxx).
val(23, 37, xxx).
val(4, 12, xxx).
val(2, 30, xxx).
val(36, 40, xxx).
val(5, 37, xxx).
val(19, 35, xxx).
val(13, 38, xxx).
val(15, 24, xxx).
val(8, 29, xxx).
val(27, 35, xxx).
val(24, 37, xxx).
val(13, 22, xxx).
val(6, 17, xxx).
val(2, 33, xxx).
val(14, 7, xxx).
val(20, 30, xxx).
val(25, 4, xxx).
val(14, 11, xxx).